p cnf 395 1136
e 1 2 3 4 0
a 5 6 7 8 0
e 9 10 11 12 0
a 13 14 15 16 0
e 17 18 19 20 0
a 21 22 23 24 0
e 25 26 27 28 49 50 51 52 53 54 55 56 57 58 59 60 61 62 63 64 0
a 29 30 31 32 0
e 33 34 35 36 37 38 39 40 41 42 43 44 45 46 47 48 65 66 67 68 0
e 69 70 71 72 73 74 75 76 77 78 79 80 81 82 83 84 85 86 87 88 89 90 91 92 93 94 95 96 97 98 99 100 101 102 103 104 105 106 107 108 109 110 111 112 113 114 115 116 117 118 119 120 121 122 123 124 125 126 127 128 129 130 131 132 133 134 135 136 137 138 139 140 141 142 143 144 145 146 147 148 149 150 151 152 153 154 155 156 157 158 159 160 161 162 163 164 165 166 167 168 169 170 171 172 173 174 175 176 177 178 179 180 181 182 183 184 185 186 187 188 189 190 191 192 193 194 195 196 197 198 199 200 201 202 203 204 205 206 207 208 209 210 211 212 213 214 215 216 217 218 219 220 221 222 223 224 225 226 227 228 229 230 231 232 233 234 235 236 237 238 239 240 241 242 243 244 245 246 247 248 249 250 251 252 253 254 255 256 257 258 259 260 261 262 263 264 265 266 267 268 269 270 271 272 273 274 275 276 277 278 279 280 281 282 283 284 285 286 287 288 289 290 291 292 293 294 295 296 297 298 299 300 301 302 303 304 305 306 307 308 309 310 311 312 313 314 315 316 317 318 319 320 321 322 323 324 325 326 327 328 329 330 331 332 333 334 335 336 337 338 339 340 341 342 343 344 345 346 347 348 349 350 351 352 353 354 355 356 357 358 359 360 361 362 363 364 365 366 367 368 369 370 371 372 373 374 375 376 377 378 379 380 381 382 383 384 385 386 387 388 389 390 391 392 393 394 395 0
1 69 0
-29 69 0
-1 29 -69 0
29 70 0
-1 70 0
-29 1 -70 0
69 -71 0
70 -71 0
-69 -70 71 0
2 72 0
-30 72 0
-2 30 -72 0
30 73 0
-2 73 0
-30 2 -73 0
72 -74 0
73 -74 0
-72 -73 74 0
3 75 0
-31 75 0
-3 31 -75 0
31 76 0
-3 76 0
-31 3 -76 0
75 -77 0
76 -77 0
-75 -76 77 0
4 78 0
-32 78 0
-4 32 -78 0
32 79 0
-4 79 0
-32 4 -79 0
78 -80 0
79 -80 0
-78 -79 80 0
71 -81 0
74 -81 0
77 -81 0
80 -81 0
-71 -74 -77 -80 81 0
-33 -82 0
35 -82 0
-36 -82 0
33 -35 36 82 0
81 83 0
-82 83 0
-81 82 -83 0
33 84 0
-35 84 0
-33 35 -84 0
35 85 0
-33 85 0
-35 33 -85 0
84 -86 0
85 -86 0
-84 -85 86 0
34 87 0
-36 87 0
-34 36 -87 0
36 88 0
-34 88 0
-36 34 -88 0
87 -89 0
88 -89 0
-87 -88 89 0
86 -90 0
89 -90 0
-86 -89 90 0
-81 91 0
-90 91 0
81 90 -91 0
5 92 0
-29 92 0
-5 29 -92 0
29 93 0
-5 93 0
-29 5 -93 0
92 -94 0
93 -94 0
-92 -93 94 0
6 95 0
-30 95 0
-6 30 -95 0
30 96 0
-6 96 0
-30 6 -96 0
95 -97 0
96 -97 0
-95 -96 97 0
7 98 0
-31 98 0
-7 31 -98 0
31 99 0
-7 99 0
-31 7 -99 0
98 -100 0
99 -100 0
-98 -99 100 0
8 101 0
-32 101 0
-8 32 -101 0
32 102 0
-8 102 0
-32 8 -102 0
101 -103 0
102 -103 0
-101 -102 103 0
94 -104 0
97 -104 0
100 -104 0
103 -104 0
-94 -97 -100 -103 104 0
104 -105 0
-35 -105 0
-104 35 105 0
37 -106 0
38 -106 0
-37 -38 106 0
105 107 0
-106 107 0
-105 106 -107 0
35 108 0
-37 108 0
-35 37 -108 0
37 109 0
-35 109 0
-37 35 -109 0
108 -110 0
109 -110 0
-108 -109 110 0
36 111 0
-38 111 0
-36 38 -111 0
38 112 0
-36 112 0
-38 36 -112 0
111 -113 0
112 -113 0
-111 -112 113 0
110 -114 0
113 -114 0
-110 -113 114 0
-105 115 0
-114 115 0
105 114 -115 0
9 116 0
-29 116 0
-9 29 -116 0
29 117 0
-9 117 0
-29 9 -117 0
116 -118 0
117 -118 0
-116 -117 118 0
10 119 0
-30 119 0
-10 30 -119 0
30 120 0
-10 120 0
-30 10 -120 0
119 -121 0
120 -121 0
-119 -120 121 0
11 122 0
-31 122 0
-11 31 -122 0
31 123 0
-11 123 0
-31 11 -123 0
122 -124 0
123 -124 0
-122 -123 124 0
12 125 0
-32 125 0
-12 32 -125 0
32 126 0
-12 126 0
-32 12 -126 0
125 -127 0
126 -127 0
-125 -126 127 0
118 -128 0
121 -128 0
124 -128 0
127 -128 0
-118 -121 -124 -127 128 0
-37 -129 0
39 -129 0
-40 -129 0
37 -39 40 129 0
128 130 0
-129 130 0
-128 129 -130 0
37 131 0
-39 131 0
-37 39 -131 0
39 132 0
-37 132 0
-39 37 -132 0
131 -133 0
132 -133 0
-131 -132 133 0
38 134 0
-40 134 0
-38 40 -134 0
40 135 0
-38 135 0
-40 38 -135 0
134 -136 0
135 -136 0
-134 -135 136 0
133 -137 0
136 -137 0
-133 -136 137 0
-128 138 0
-137 138 0
128 137 -138 0
13 139 0
-29 139 0
-13 29 -139 0
29 140 0
-13 140 0
-29 13 -140 0
139 -141 0
140 -141 0
-139 -140 141 0
14 142 0
-30 142 0
-14 30 -142 0
30 143 0
-14 143 0
-30 14 -143 0
142 -144 0
143 -144 0
-142 -143 144 0
15 145 0
-31 145 0
-15 31 -145 0
31 146 0
-15 146 0
-31 15 -146 0
145 -147 0
146 -147 0
-145 -146 147 0
16 148 0
-32 148 0
-16 32 -148 0
32 149 0
-16 149 0
-32 16 -149 0
148 -150 0
149 -150 0
-148 -149 150 0
141 -151 0
144 -151 0
147 -151 0
150 -151 0
-141 -144 -147 -150 151 0
151 -152 0
-39 -152 0
-151 39 152 0
41 -153 0
42 -153 0
-41 -42 153 0
152 154 0
-153 154 0
-152 153 -154 0
39 155 0
-41 155 0
-39 41 -155 0
41 156 0
-39 156 0
-41 39 -156 0
155 -157 0
156 -157 0
-155 -156 157 0
40 158 0
-42 158 0
-40 42 -158 0
42 159 0
-40 159 0
-42 40 -159 0
158 -160 0
159 -160 0
-158 -159 160 0
157 -161 0
160 -161 0
-157 -160 161 0
-152 162 0
-161 162 0
152 161 -162 0
17 163 0
-29 163 0
-17 29 -163 0
29 164 0
-17 164 0
-29 17 -164 0
163 -165 0
164 -165 0
-163 -164 165 0
18 166 0
-30 166 0
-18 30 -166 0
30 167 0
-18 167 0
-30 18 -167 0
166 -168 0
167 -168 0
-166 -167 168 0
19 169 0
-31 169 0
-19 31 -169 0
31 170 0
-19 170 0
-31 19 -170 0
169 -171 0
170 -171 0
-169 -170 171 0
20 172 0
-32 172 0
-20 32 -172 0
32 173 0
-20 173 0
-32 20 -173 0
172 -174 0
173 -174 0
-172 -173 174 0
165 -175 0
168 -175 0
171 -175 0
174 -175 0
-165 -168 -171 -174 175 0
-41 -176 0
43 -176 0
-44 -176 0
41 -43 44 176 0
175 177 0
-176 177 0
-175 176 -177 0
41 178 0
-43 178 0
-41 43 -178 0
43 179 0
-41 179 0
-43 41 -179 0
178 -180 0
179 -180 0
-178 -179 180 0
42 181 0
-44 181 0
-42 44 -181 0
44 182 0
-42 182 0
-44 42 -182 0
181 -183 0
182 -183 0
-181 -182 183 0
180 -184 0
183 -184 0
-180 -183 184 0
-175 185 0
-184 185 0
175 184 -185 0
21 186 0
-29 186 0
-21 29 -186 0
29 187 0
-21 187 0
-29 21 -187 0
186 -188 0
187 -188 0
-186 -187 188 0
22 189 0
-30 189 0
-22 30 -189 0
30 190 0
-22 190 0
-30 22 -190 0
189 -191 0
190 -191 0
-189 -190 191 0
23 192 0
-31 192 0
-23 31 -192 0
31 193 0
-23 193 0
-31 23 -193 0
192 -194 0
193 -194 0
-192 -193 194 0
24 195 0
-32 195 0
-24 32 -195 0
32 196 0
-24 196 0
-32 24 -196 0
195 -197 0
196 -197 0
-195 -196 197 0
188 -198 0
191 -198 0
194 -198 0
197 -198 0
-188 -191 -194 -197 198 0
198 -199 0
-43 -199 0
-198 43 199 0
45 -200 0
46 -200 0
-45 -46 200 0
199 201 0
-200 201 0
-199 200 -201 0
43 202 0
-45 202 0
-43 45 -202 0
45 203 0
-43 203 0
-45 43 -203 0
202 -204 0
203 -204 0
-202 -203 204 0
44 205 0
-46 205 0
-44 46 -205 0
46 206 0
-44 206 0
-46 44 -206 0
205 -207 0
206 -207 0
-205 -206 207 0
204 -208 0
207 -208 0
-204 -207 208 0
-199 209 0
-208 209 0
199 208 -209 0
25 210 0
-29 210 0
-25 29 -210 0
29 211 0
-25 211 0
-29 25 -211 0
210 -212 0
211 -212 0
-210 -211 212 0
26 213 0
-30 213 0
-26 30 -213 0
30 214 0
-26 214 0
-30 26 -214 0
213 -215 0
214 -215 0
-213 -214 215 0
27 216 0
-31 216 0
-27 31 -216 0
31 217 0
-27 217 0
-31 27 -217 0
216 -218 0
217 -218 0
-216 -217 218 0
28 219 0
-32 219 0
-28 32 -219 0
32 220 0
-28 220 0
-32 28 -220 0
219 -221 0
220 -221 0
-219 -220 221 0
212 -222 0
215 -222 0
218 -222 0
221 -222 0
-212 -215 -218 -221 222 0
-45 -223 0
47 -223 0
-48 -223 0
45 -47 48 223 0
222 224 0
-223 224 0
-222 223 -224 0
45 225 0
-47 225 0
-45 47 -225 0
47 226 0
-45 226 0
-47 45 -226 0
225 -227 0
226 -227 0
-225 -226 227 0
46 228 0
-48 228 0
-46 48 -228 0
48 229 0
-46 229 0
-48 46 -229 0
228 -230 0
229 -230 0
-228 -229 230 0
227 -231 0
230 -231 0
-227 -230 231 0
-222 232 0
-231 232 0
222 231 -232 0
83 -233 0
91 -233 0
107 -233 0
115 -233 0
130 -233 0
138 -233 0
154 -233 0
162 -233 0
177 -233 0
185 -233 0
201 -233 0
209 -233 0
224 -233 0
232 -233 0
-83 -91 -107 -115 -130 -138 -154 -162 -177 -185 -201 -209 -224 -232 233 0
-29 -234 0
-30 -234 0
-31 -234 0
-32 -234 0
29 30 31 32 234 0
-65 -235 0
66 -235 0
-67 -235 0
-68 -235 0
65 -66 67 68 235 0
-65 -236 0
-66 -236 0
-67 -236 0
68 -236 0
65 66 67 -68 236 0
-235 237 0
-236 237 0
235 236 -237 0
234 238 0
-237 238 0
-234 237 -238 0
-29 -239 0
-30 -239 0
-31 -239 0
32 -239 0
29 30 31 -32 239 0
-65 -240 0
66 -240 0
-67 -240 0
68 -240 0
65 -66 67 -68 240 0
-65 -241 0
-66 -241 0
-67 -241 0
-68 -241 0
65 66 67 68 241 0
-65 -242 0
-66 -242 0
67 -242 0
-68 -242 0
65 66 -67 68 242 0
-240 243 0
-241 243 0
-242 243 0
-235 243 0
240 241 242 235 -243 0
239 244 0
-243 244 0
-239 243 -244 0
-29 -245 0
-30 -245 0
31 -245 0
-32 -245 0
29 30 -31 32 245 0
245 246 0
-242 246 0
-245 242 -246 0
-29 -247 0
-30 -247 0
31 -247 0
32 -247 0
29 30 -31 -32 247 0
247 248 0
-235 248 0
-247 235 -248 0
-29 -249 0
30 -249 0
-31 -249 0
-32 -249 0
29 -30 31 32 249 0
65 -250 0
-66 -250 0
-67 -250 0
-68 -250 0
-65 66 67 68 250 0
-65 -251 0
-66 -251 0
67 -251 0
68 -251 0
65 66 -67 -68 251 0
-65 -252 0
66 -252 0
67 -252 0
68 -252 0
65 -66 -67 -68 252 0
-241 253 0
-250 253 0
-251 253 0
-240 253 0
-236 253 0
-252 253 0
241 250 251 240 236 252 -253 0
249 254 0
-253 254 0
-249 253 -254 0
-29 -255 0
30 -255 0
-31 -255 0
32 -255 0
29 -30 31 -32 255 0
65 -256 0
-66 -256 0
-67 -256 0
68 -256 0
-65 66 67 -68 256 0
-65 -257 0
66 -257 0
67 -257 0
-68 -257 0
65 -66 -67 68 257 0
-236 258 0
-256 258 0
-235 258 0
-257 258 0
-242 258 0
-250 258 0
236 256 235 257 242 250 -258 0
255 259 0
-258 259 0
-255 258 -259 0
-29 -260 0
30 -260 0
31 -260 0
-32 -260 0
29 -30 -31 32 260 0
260 261 0
-257 261 0
-260 257 -261 0
-29 -262 0
30 -262 0
31 -262 0
32 -262 0
29 -30 -31 -32 262 0
-250 263 0
-235 263 0
250 235 -263 0
262 264 0
-263 264 0
-262 263 -264 0
29 -265 0
-30 -265 0
-31 -265 0
-32 -265 0
-29 30 31 32 265 0
-235 266 0
-252 266 0
-256 266 0
-240 266 0
235 252 256 240 -266 0
265 267 0
-266 267 0
-265 266 -267 0
29 -268 0
-30 -268 0
-31 -268 0
32 -268 0
-29 30 31 -32 268 0
65 -269 0
-66 -269 0
67 -269 0
-68 -269 0
-65 66 -67 68 269 0
-240 270 0
-250 270 0
-269 270 0
-257 270 0
240 250 269 257 -270 0
268 271 0
-270 271 0
-268 270 -271 0
29 -272 0
-30 -272 0
31 -272 0
-32 -272 0
-29 30 -31 32 272 0
272 273 0
-269 273 0
-272 269 -273 0
49 274 0
-29 274 0
-49 29 -274 0
29 275 0
-49 275 0
-29 49 -275 0
274 -276 0
275 -276 0
-274 -275 276 0
50 277 0
-30 277 0
-50 30 -277 0
30 278 0
-50 278 0
-30 50 -278 0
277 -279 0
278 -279 0
-277 -278 279 0
51 280 0
-31 280 0
-51 31 -280 0
31 281 0
-51 281 0
-31 51 -281 0
280 -282 0
281 -282 0
-280 -281 282 0
52 283 0
-32 283 0
-52 32 -283 0
32 284 0
-52 284 0
-32 52 -284 0
283 -285 0
284 -285 0
-283 -284 285 0
276 -286 0
279 -286 0
282 -286 0
285 -286 0
-276 -279 -282 -285 286 0
53 287 0
-65 287 0
-53 65 -287 0
65 288 0
-53 288 0
-65 53 -288 0
287 -289 0
288 -289 0
-287 -288 289 0
54 290 0
-66 290 0
-54 66 -290 0
66 291 0
-54 291 0
-66 54 -291 0
290 -292 0
291 -292 0
-290 -291 292 0
55 293 0
-67 293 0
-55 67 -293 0
67 294 0
-55 294 0
-67 55 -294 0
293 -295 0
294 -295 0
-293 -294 295 0
56 296 0
-68 296 0
-56 68 -296 0
68 297 0
-56 297 0
-68 56 -297 0
296 -298 0
297 -298 0
-296 -297 298 0
289 -299 0
292 -299 0
295 -299 0
298 -299 0
-289 -292 -295 -298 299 0
286 300 0
-299 300 0
-286 299 -300 0
47 -301 0
-48 -301 0
-47 48 301 0
286 302 0
-301 302 0
-286 301 -302 0
53 303 0
-29 303 0
-53 29 -303 0
29 304 0
-53 304 0
-29 53 -304 0
303 -305 0
304 -305 0
-303 -304 305 0
54 306 0
-30 306 0
-54 30 -306 0
30 307 0
-54 307 0
-30 54 -307 0
306 -308 0
307 -308 0
-306 -307 308 0
55 309 0
-31 309 0
-55 31 -309 0
31 310 0
-55 310 0
-31 55 -310 0
309 -311 0
310 -311 0
-309 -310 311 0
56 312 0
-32 312 0
-56 32 -312 0
32 313 0
-56 313 0
-32 56 -313 0
312 -314 0
313 -314 0
-312 -313 314 0
305 -315 0
308 -315 0
311 -315 0
314 -315 0
-305 -308 -311 -314 315 0
57 316 0
-65 316 0
-57 65 -316 0
65 317 0
-57 317 0
-65 57 -317 0
316 -318 0
317 -318 0
-316 -317 318 0
58 319 0
-66 319 0
-58 66 -319 0
66 320 0
-58 320 0
-66 58 -320 0
319 -321 0
320 -321 0
-319 -320 321 0
59 322 0
-67 322 0
-59 67 -322 0
67 323 0
-59 323 0
-67 59 -323 0
322 -324 0
323 -324 0
-322 -323 324 0
60 325 0
-68 325 0
-60 68 -325 0
68 326 0
-60 326 0
-68 60 -326 0
325 -327 0
326 -327 0
-325 -326 327 0
318 -328 0
321 -328 0
324 -328 0
327 -328 0
-318 -321 -324 -327 328 0
315 329 0
-328 329 0
-315 328 -329 0
315 330 0
-301 330 0
-315 301 -330 0
57 331 0
-29 331 0
-57 29 -331 0
29 332 0
-57 332 0
-29 57 -332 0
331 -333 0
332 -333 0
-331 -332 333 0
58 334 0
-30 334 0
-58 30 -334 0
30 335 0
-58 335 0
-30 58 -335 0
334 -336 0
335 -336 0
-334 -335 336 0
59 337 0
-31 337 0
-59 31 -337 0
31 338 0
-59 338 0
-31 59 -338 0
337 -339 0
338 -339 0
-337 -338 339 0
60 340 0
-32 340 0
-60 32 -340 0
32 341 0
-60 341 0
-32 60 -341 0
340 -342 0
341 -342 0
-340 -341 342 0
333 -343 0
336 -343 0
339 -343 0
342 -343 0
-333 -336 -339 -342 343 0
61 344 0
-65 344 0
-61 65 -344 0
65 345 0
-61 345 0
-65 61 -345 0
344 -346 0
345 -346 0
-344 -345 346 0
62 347 0
-66 347 0
-62 66 -347 0
66 348 0
-62 348 0
-66 62 -348 0
347 -349 0
348 -349 0
-347 -348 349 0
63 350 0
-67 350 0
-63 67 -350 0
67 351 0
-63 351 0
-67 63 -351 0
350 -352 0
351 -352 0
-350 -351 352 0
64 353 0
-68 353 0
-64 68 -353 0
68 354 0
-64 354 0
-68 64 -354 0
353 -355 0
354 -355 0
-353 -354 355 0
346 -356 0
349 -356 0
352 -356 0
355 -356 0
-346 -349 -352 -355 356 0
343 357 0
-356 357 0
-343 356 -357 0
343 358 0
-301 358 0
-343 301 -358 0
61 359 0
-29 359 0
-61 29 -359 0
29 360 0
-61 360 0
-29 61 -360 0
359 -361 0
360 -361 0
-359 -360 361 0
62 362 0
-30 362 0
-62 30 -362 0
30 363 0
-62 363 0
-30 62 -363 0
362 -364 0
363 -364 0
-362 -363 364 0
63 365 0
-31 365 0
-63 31 -365 0
31 366 0
-63 366 0
-31 63 -366 0
365 -367 0
366 -367 0
-365 -366 367 0
64 368 0
-32 368 0
-64 32 -368 0
32 369 0
-64 369 0
-32 64 -369 0
368 -370 0
369 -370 0
-368 -369 370 0
361 -371 0
364 -371 0
367 -371 0
370 -371 0
-361 -364 -367 -370 371 0
371 372 0
-301 372 0
-371 301 -372 0
-49 -373 0
-50 -373 0
-51 -373 0
-52 -373 0
49 50 51 52 373 0
-49 -374 0
-50 -374 0
51 -374 0
52 -374 0
49 50 -51 -52 374 0
-49 -375 0
50 -375 0
51 -375 0
52 -375 0
49 -50 -51 -52 375 0
-373 376 0
-374 376 0
-375 376 0
373 374 375 -376 0
-61 -377 0
-62 -377 0
63 -377 0
-64 -377 0
61 62 -63 64 377 0
-61 -378 0
62 -378 0
63 -378 0
-64 -378 0
61 -62 -63 64 378 0
61 -379 0
-62 -379 0
63 -379 0
-64 -379 0
-61 62 -63 64 379 0
-377 380 0
-378 380 0
-379 380 0
377 378 379 -380 0
238 -381 0
244 -381 0
246 -381 0
248 -381 0
254 -381 0
259 -381 0
261 -381 0
264 -381 0
267 -381 0
271 -381 0
273 -381 0
300 -381 0
302 -381 0
329 -381 0
330 -381 0
357 -381 0
358 -381 0
372 -381 0
376 -381 0
380 -381 0
-238 -244 -246 -248 -254 -259 -261 -264 -267 -271 -273 -300 -302 -329 -330 -357 -358 -372 -376 -380 381 0
1 -382 0
-2 -382 0
-3 -382 0
-1 2 3 382 0
1 -383 0
-2 -383 0
3 -383 0
-4 -383 0
-1 2 -3 4 383 0
1 384 0
-382 384 0
-383 384 0
-1 382 383 -384 0
9 -385 0
-10 -385 0
-11 -385 0
-9 10 11 385 0
9 -386 0
-10 -386 0
11 -386 0
-12 -386 0
-9 10 -11 12 386 0
9 387 0
-385 387 0
-386 387 0
-9 385 386 -387 0
17 -388 0
-18 -388 0
-19 -388 0
-17 18 19 388 0
17 -389 0
-18 -389 0
19 -389 0
-20 -389 0
-17 18 -19 20 389 0
17 390 0
-388 390 0
-389 390 0
-17 388 389 -390 0
25 -391 0
-26 -391 0
-27 -391 0
-25 26 27 391 0
25 -392 0
-26 -392 0
27 -392 0
-28 -392 0
-25 26 -27 28 392 0
25 393 0
-391 393 0
-392 393 0
-25 391 392 -393 0
384 -394 0
387 -394 0
390 -394 0
393 -394 0
-384 -387 -390 -393 394 0
394 -395 0
-33 -395 0
233 -395 0
381 -395 0
-394 33 -233 -381 395 0
395 0

